28822.92,45.32,49.91
28891.9,45.21,49.79
33759.34,38.69,42.61
32003.45,40.81,44.95
33498.19,38.99,42.94
30570.87,42.73,47.05
34694.1,37.65,41.46
32738.43,39.9,43.94
29548.44,44.21,48.68
30948.97,42.2,46.48
32256.16,40.49,44.59
30457.22,42.89,47.23
33329.61,39.19,43.16
34047.46,38.36,42.25
32844.84,39.77,43.8
31786.91,41.09,45.25
31188.17,41.88,46.12
34891.38,37.44,41.23
29973.66,43.58,47.99
34988.8,37.33,41.11
